
Gurobi 10.0.2 (win64) logging started Fri Aug 18 23:03:58 2023

Set parameter LogFile to value "Outputs/Logfiles/model_moo(Aug 18,2303).log"
Gurobi Optimizer version 10.0.2 build v10.0.2rc0 (win64)

CPU model: Intel(R) Core(TM) i5-8265U CPU @ 1.60GHz, instruction set [SSE2|AVX|AVX2]
Thread count: 4 physical cores, 8 logical processors, using up to 8 threads

Optimize a model with 501 rows, 1020 columns and 1322 nonzeros
Model fingerprint: 0xd75c6f45
Variable types: 750 continuous, 270 integer (270 binary)
Coefficient statistics:
  Matrix range     [1e+00, 1e+00]
  Objective range  [5e-04, 3e-01]
  Bounds range     [1e+00, 1e+00]
  RHS range        [1e+00, 5e+00]
Found heuristic solution: objective -0.0000000
Presolve removed 212 rows and 780 columns
Presolve time: 0.03s
Presolved: 289 rows, 240 columns, 680 nonzeros
Variable types: 0 continuous, 240 integer (240 binary)
Found heuristic solution: objective 8.6297050

Root relaxation: objective 9.787894e+00, 198 iterations, 0.01 seconds (0.00 work units)

    Nodes    |    Current Node    |     Objective Bounds      |     Work
 Expl Unexpl |  Obj  Depth IntInf | Incumbent    BestBd   Gap | It/Node Time

*    0     0               0       9.7878942    9.78789  0.00%     -    0s

Explored 1 nodes (198 simplex iterations) in 0.11 seconds (0.00 work units)
Thread count was 8 (of 8 available processors)

Solution count 2: 9.78789 8.6297 

Optimal solution found (tolerance 1.00e-04)
Best objective 9.787894201424e+00, best bound 9.787894201424e+00, gap 0.0000%

    Variable            X 
-------------------------
cover[o98,s13]            1 
cover[o53,s11]            1 
cover[o178,s2]            1 
cover[o203,s19]            1 
cover[o127,s13]            1 
cover[o172,s2]            1 
cover[o51,s13]            1 
cover[o7,s19]            1 
cover[o221,s1]            1 
cover[o64,s11]            1 
cover[o25,s1]            1 
cover[o86,s19]            1 
cover[o93,s19]            1 
cover[o108,s13]            1 
cover[o131,s11]            1 
cover[o6,s19]            1 
cover[o41,s2]            1 
cover[o169,s2]            1 
cover[o185,s1]            1 
cover[o87,s19]            1 
cover[o168,s2]            1 
cover[o24,s1]            1 
cover[o190,s11]            1 
cover[o97,s13]            1 
cover[o162,s2]            1 
cover[o106,s13]            1 
cover[o157,s2]            1 
cover[o175,s2]            1 
cover[o136,s11]            1 
cover[o3,s11]            1 
cover[o45,s11]            1 
cover[o27,s1]            1 
cover[o219,s1]            1 
cover[o9,s13]            1 
cover[o139,s11]            1 
cover[o113,s13]            1 
cover[o160,s2]            1 
cover[o191,s11]            1 
cover[o104,s13]            1 
cover[o184,s1]            1 
cover[o37,s2]            1 
cover[o165,s2]            1 
cover[o83,s19]            1 
cover[o114,s13]            1 
cover[o155,s2]            1 
cover[o91,s19]            1 
cover[o183,s1]            1 
cover[o11,s13]            1 
cover[o181,s1]            1 
cover[o159,s2]            1 
cover[o48,s13]            1 
cover[o129,s13]            1 
cover[o158,s2]            1 
cover[o117,s13]            1 
cover[o101,s13]            1 
cover[o44,s19]            1 
cover[o59,s11]            1 
cover[o13,s11]            1 
cover[o128,s13]            1 
cover[o90,s19]            1 
cover[o79,s19]            1 
cover[o161,s2]            1 
cover[o163,s2]            1 
cover[o130,s11]            1 
cover[o107,s13]            1 
cover[o42,s2]            1 
cover[o22,s1]            1 
cover[o187,s1]            1 
cover[o84,s19]            1 
cover[o132,s11]            1 
cover[o198,s1]            1 
cover[o49,s13]            1 
cover[o124,s13]            1 
cover[o134,s11]            1 
cover[o82,s19]            1 
cover[o220,s1]            1 
cover[o43,s2]            1 
cover[o192,s1]            1 
cover[o174,s2]            1 
  select[s1]            1 
 select[s13]            1 
  select[s2]            1 
 select[s19]            1 
 select[s11]            1 
